50
500
391
337
335
334
334
293
293
281
278
270
269
269
264
264
261
256
248
247
243
240
240
239
237
237
236
232
231
218
209
206
193
182
167
166
154
150
148
148
147
135
129
128
126
103
102
99
99
76
59
51
